c *********************************
c * Circuit generated by BenCGen
c *
c * Magnitude_46
c *
c * Ports with 1 gate(s): 48
c * Ports with 2 gate(s): 95
c * Ports with 3 gate(s): 1
c * Ports with 4 gate(s): 1
c * Ports with 5 gate(s): 1
c * Ports with 6 gate(s): 1
c * Ports with 7 gate(s): 1
c * Ports with 8 gate(s): 1
c * Ports with 9 gate(s): 1
c * Ports with 10 gate(s): 1
c * Ports with 11 gate(s): 1
c * Ports with 12 gate(s): 1
c * Ports with 13 gate(s): 1
c * Ports with 14 gate(s): 1
c * Ports with 15 gate(s): 1
c * Ports with 16 gate(s): 1
c * Ports with 17 gate(s): 1
c * Ports with 18 gate(s): 1
c * Ports with 19 gate(s): 1
c * Ports with 20 gate(s): 1
c * Ports with 21 gate(s): 1
c * Ports with 22 gate(s): 1
c * Ports with 23 gate(s): 1
c * Ports with 24 gate(s): 1
c * Ports with 25 gate(s): 1
c * Ports with 26 gate(s): 1
c * Ports with 27 gate(s): 1
c * Ports with 28 gate(s): 1
c * Ports with 29 gate(s): 1
c * Ports with 30 gate(s): 1
c * Ports with 31 gate(s): 1
c * Ports with 32 gate(s): 1
c * Ports with 33 gate(s): 1
c * Ports with 34 gate(s): 1
c * Ports with 35 gate(s): 1
c * Ports with 36 gate(s): 1
c * Ports with 37 gate(s): 1
c * Ports with 38 gate(s): 1
c * Ports with 39 gate(s): 1
c * Ports with 40 gate(s): 1
c * Ports with 41 gate(s): 1
c * Ports with 42 gate(s): 1
c * Ports with 43 gate(s): 1
c * Ports with 44 gate(s): 1
c * Ports with 45 gate(s): 1
c * Ports with 46 gate(s): 3
c * Total gates: 189
c *********************************
p cnf 281 1643
1 97 0
-1 -97 0
1 -96 0
97 -96 0
-1 -97 96 0
47 98 0
-47 -98 0
48 99 0
-48 -99 0
49 100 0
-49 -100 0
50 101 0
-50 -101 0
51 102 0
-51 -102 0
52 103 0
-52 -103 0
53 104 0
-53 -104 0
54 105 0
-54 -105 0
55 106 0
-55 -106 0
56 107 0
-56 -107 0
57 108 0
-57 -108 0
58 109 0
-58 -109 0
59 110 0
-59 -110 0
60 111 0
-60 -111 0
61 112 0
-61 -112 0
62 113 0
-62 -113 0
63 114 0
-63 -114 0
64 115 0
-64 -115 0
65 116 0
-65 -116 0
66 117 0
-66 -117 0
67 118 0
-67 -118 0
68 119 0
-68 -119 0
69 120 0
-69 -120 0
70 121 0
-70 -121 0
71 122 0
-71 -122 0
72 123 0
-72 -123 0
73 124 0
-73 -124 0
74 125 0
-74 -125 0
75 126 0
-75 -126 0
76 127 0
-76 -127 0
77 128 0
-77 -128 0
78 129 0
-78 -129 0
79 130 0
-79 -130 0
80 131 0
-80 -131 0
81 132 0
-81 -132 0
82 133 0
-82 -133 0
83 134 0
-83 -134 0
84 135 0
-84 -135 0
85 136 0
-85 -136 0
86 137 0
-86 -137 0
87 138 0
-87 -138 0
88 139 0
-88 -139 0
89 140 0
-89 -140 0
90 141 0
-90 -141 0
91 142 0
-91 -142 0
92 143 0
-92 -143 0
1 47 190 0
-1 47 -190 0
1 -47 -190 0
-1 -47 190 0
1 -144 0
98 -144 0
-1 -98 144 0
2 48 191 0
-2 48 -191 0
2 -48 -191 0
-2 -48 191 0
2 -145 0
99 -145 0
-2 -99 145 0
3 49 192 0
-3 49 -192 0
3 -49 -192 0
-3 -49 192 0
3 -146 0
100 -146 0
-3 -100 146 0
4 50 193 0
-4 50 -193 0
4 -50 -193 0
-4 -50 193 0
4 -147 0
101 -147 0
-4 -101 147 0
5 51 194 0
-5 51 -194 0
5 -51 -194 0
-5 -51 194 0
5 -148 0
102 -148 0
-5 -102 148 0
6 52 195 0
-6 52 -195 0
6 -52 -195 0
-6 -52 195 0
6 -149 0
103 -149 0
-6 -103 149 0
7 53 196 0
-7 53 -196 0
7 -53 -196 0
-7 -53 196 0
7 -150 0
104 -150 0
-7 -104 150 0
8 54 197 0
-8 54 -197 0
8 -54 -197 0
-8 -54 197 0
8 -151 0
105 -151 0
-8 -105 151 0
9 55 198 0
-9 55 -198 0
9 -55 -198 0
-9 -55 198 0
9 -152 0
106 -152 0
-9 -106 152 0
10 56 199 0
-10 56 -199 0
10 -56 -199 0
-10 -56 199 0
10 -153 0
107 -153 0
-10 -107 153 0
11 57 200 0
-11 57 -200 0
11 -57 -200 0
-11 -57 200 0
11 -154 0
108 -154 0
-11 -108 154 0
12 58 201 0
-12 58 -201 0
12 -58 -201 0
-12 -58 201 0
12 -155 0
109 -155 0
-12 -109 155 0
13 59 202 0
-13 59 -202 0
13 -59 -202 0
-13 -59 202 0
13 -156 0
110 -156 0
-13 -110 156 0
14 60 203 0
-14 60 -203 0
14 -60 -203 0
-14 -60 203 0
14 -157 0
111 -157 0
-14 -111 157 0
15 61 204 0
-15 61 -204 0
15 -61 -204 0
-15 -61 204 0
15 -158 0
112 -158 0
-15 -112 158 0
16 62 205 0
-16 62 -205 0
16 -62 -205 0
-16 -62 205 0
16 -159 0
113 -159 0
-16 -113 159 0
17 63 206 0
-17 63 -206 0
17 -63 -206 0
-17 -63 206 0
17 -160 0
114 -160 0
-17 -114 160 0
18 64 207 0
-18 64 -207 0
18 -64 -207 0
-18 -64 207 0
18 -161 0
115 -161 0
-18 -115 161 0
19 65 208 0
-19 65 -208 0
19 -65 -208 0
-19 -65 208 0
19 -162 0
116 -162 0
-19 -116 162 0
20 66 209 0
-20 66 -209 0
20 -66 -209 0
-20 -66 209 0
20 -163 0
117 -163 0
-20 -117 163 0
21 67 210 0
-21 67 -210 0
21 -67 -210 0
-21 -67 210 0
21 -164 0
118 -164 0
-21 -118 164 0
22 68 211 0
-22 68 -211 0
22 -68 -211 0
-22 -68 211 0
22 -165 0
119 -165 0
-22 -119 165 0
23 69 212 0
-23 69 -212 0
23 -69 -212 0
-23 -69 212 0
23 -166 0
120 -166 0
-23 -120 166 0
24 70 213 0
-24 70 -213 0
24 -70 -213 0
-24 -70 213 0
24 -167 0
121 -167 0
-24 -121 167 0
25 71 214 0
-25 71 -214 0
25 -71 -214 0
-25 -71 214 0
25 -168 0
122 -168 0
-25 -122 168 0
26 72 215 0
-26 72 -215 0
26 -72 -215 0
-26 -72 215 0
26 -169 0
123 -169 0
-26 -123 169 0
27 73 216 0
-27 73 -216 0
27 -73 -216 0
-27 -73 216 0
27 -170 0
124 -170 0
-27 -124 170 0
28 74 217 0
-28 74 -217 0
28 -74 -217 0
-28 -74 217 0
28 -171 0
125 -171 0
-28 -125 171 0
29 75 218 0
-29 75 -218 0
29 -75 -218 0
-29 -75 218 0
29 -172 0
126 -172 0
-29 -126 172 0
30 76 219 0
-30 76 -219 0
30 -76 -219 0
-30 -76 219 0
30 -173 0
127 -173 0
-30 -127 173 0
31 77 220 0
-31 77 -220 0
31 -77 -220 0
-31 -77 220 0
31 -174 0
128 -174 0
-31 -128 174 0
32 78 221 0
-32 78 -221 0
32 -78 -221 0
-32 -78 221 0
32 -175 0
129 -175 0
-32 -129 175 0
33 79 222 0
-33 79 -222 0
33 -79 -222 0
-33 -79 222 0
33 -176 0
130 -176 0
-33 -130 176 0
34 80 223 0
-34 80 -223 0
34 -80 -223 0
-34 -80 223 0
34 -177 0
131 -177 0
-34 -131 177 0
35 81 224 0
-35 81 -224 0
35 -81 -224 0
-35 -81 224 0
35 -178 0
132 -178 0
-35 -132 178 0
36 82 225 0
-36 82 -225 0
36 -82 -225 0
-36 -82 225 0
36 -179 0
133 -179 0
-36 -133 179 0
37 83 226 0
-37 83 -226 0
37 -83 -226 0
-37 -83 226 0
37 -180 0
134 -180 0
-37 -134 180 0
38 84 227 0
-38 84 -227 0
38 -84 -227 0
-38 -84 227 0
38 -181 0
135 -181 0
-38 -135 181 0
39 85 228 0
-39 85 -228 0
39 -85 -228 0
-39 -85 228 0
39 -182 0
136 -182 0
-39 -136 182 0
40 86 229 0
-40 86 -229 0
40 -86 -229 0
-40 -86 229 0
40 -183 0
137 -183 0
-40 -137 183 0
41 87 230 0
-41 87 -230 0
41 -87 -230 0
-41 -87 230 0
41 -184 0
138 -184 0
-41 -138 184 0
42 88 231 0
-42 88 -231 0
42 -88 -231 0
-42 -88 231 0
42 -185 0
139 -185 0
-42 -139 185 0
43 89 232 0
-43 89 -232 0
43 -89 -232 0
-43 -89 232 0
43 -186 0
140 -186 0
-43 -140 186 0
44 90 233 0
-44 90 -233 0
44 -90 -233 0
-44 -90 233 0
44 -187 0
141 -187 0
-44 -141 187 0
45 91 234 0
-45 91 -234 0
45 -91 -234 0
-45 -91 234 0
45 -188 0
142 -188 0
-45 -142 188 0
46 92 235 0
-46 92 -235 0
46 -92 -235 0
-46 -92 235 0
46 -189 0
143 -189 0
-46 -143 189 0
144 -236 0
191 -236 0
192 -236 0
193 -236 0
194 -236 0
195 -236 0
196 -236 0
197 -236 0
198 -236 0
199 -236 0
200 -236 0
201 -236 0
202 -236 0
203 -236 0
204 -236 0
205 -236 0
206 -236 0
207 -236 0
208 -236 0
209 -236 0
210 -236 0
211 -236 0
212 -236 0
213 -236 0
214 -236 0
215 -236 0
216 -236 0
217 -236 0
218 -236 0
219 -236 0
220 -236 0
221 -236 0
222 -236 0
223 -236 0
224 -236 0
225 -236 0
226 -236 0
227 -236 0
228 -236 0
229 -236 0
230 -236 0
231 -236 0
232 -236 0
233 -236 0
234 -236 0
235 -236 0
-144 -191 -192 -193 -194 -195 -196 -197 -198 -199 -200 -201 -202 -203 -204 -205 -206 -207 -208 -209 -210 -211 -212 -213 -214 -215 -216 -217 -218 -219 -220 -221 -222 -223 -224 -225 -226 -227 -228 -229 -230 -231 -232 -233 -234 -235 236 0
145 -237 0
192 -237 0
193 -237 0
194 -237 0
195 -237 0
196 -237 0
197 -237 0
198 -237 0
199 -237 0
200 -237 0
201 -237 0
202 -237 0
203 -237 0
204 -237 0
205 -237 0
206 -237 0
207 -237 0
208 -237 0
209 -237 0
210 -237 0
211 -237 0
212 -237 0
213 -237 0
214 -237 0
215 -237 0
216 -237 0
217 -237 0
218 -237 0
219 -237 0
220 -237 0
221 -237 0
222 -237 0
223 -237 0
224 -237 0
225 -237 0
226 -237 0
227 -237 0
228 -237 0
229 -237 0
230 -237 0
231 -237 0
232 -237 0
233 -237 0
234 -237 0
235 -237 0
-145 -192 -193 -194 -195 -196 -197 -198 -199 -200 -201 -202 -203 -204 -205 -206 -207 -208 -209 -210 -211 -212 -213 -214 -215 -216 -217 -218 -219 -220 -221 -222 -223 -224 -225 -226 -227 -228 -229 -230 -231 -232 -233 -234 -235 237 0
146 -238 0
193 -238 0
194 -238 0
195 -238 0
196 -238 0
197 -238 0
198 -238 0
199 -238 0
200 -238 0
201 -238 0
202 -238 0
203 -238 0
204 -238 0
205 -238 0
206 -238 0
207 -238 0
208 -238 0
209 -238 0
210 -238 0
211 -238 0
212 -238 0
213 -238 0
214 -238 0
215 -238 0
216 -238 0
217 -238 0
218 -238 0
219 -238 0
220 -238 0
221 -238 0
222 -238 0
223 -238 0
224 -238 0
225 -238 0
226 -238 0
227 -238 0
228 -238 0
229 -238 0
230 -238 0
231 -238 0
232 -238 0
233 -238 0
234 -238 0
235 -238 0
-146 -193 -194 -195 -196 -197 -198 -199 -200 -201 -202 -203 -204 -205 -206 -207 -208 -209 -210 -211 -212 -213 -214 -215 -216 -217 -218 -219 -220 -221 -222 -223 -224 -225 -226 -227 -228 -229 -230 -231 -232 -233 -234 -235 238 0
147 -239 0
194 -239 0
195 -239 0
196 -239 0
197 -239 0
198 -239 0
199 -239 0
200 -239 0
201 -239 0
202 -239 0
203 -239 0
204 -239 0
205 -239 0
206 -239 0
207 -239 0
208 -239 0
209 -239 0
210 -239 0
211 -239 0
212 -239 0
213 -239 0
214 -239 0
215 -239 0
216 -239 0
217 -239 0
218 -239 0
219 -239 0
220 -239 0
221 -239 0
222 -239 0
223 -239 0
224 -239 0
225 -239 0
226 -239 0
227 -239 0
228 -239 0
229 -239 0
230 -239 0
231 -239 0
232 -239 0
233 -239 0
234 -239 0
235 -239 0
-147 -194 -195 -196 -197 -198 -199 -200 -201 -202 -203 -204 -205 -206 -207 -208 -209 -210 -211 -212 -213 -214 -215 -216 -217 -218 -219 -220 -221 -222 -223 -224 -225 -226 -227 -228 -229 -230 -231 -232 -233 -234 -235 239 0
148 -240 0
195 -240 0
196 -240 0
197 -240 0
198 -240 0
199 -240 0
200 -240 0
201 -240 0
202 -240 0
203 -240 0
204 -240 0
205 -240 0
206 -240 0
207 -240 0
208 -240 0
209 -240 0
210 -240 0
211 -240 0
212 -240 0
213 -240 0
214 -240 0
215 -240 0
216 -240 0
217 -240 0
218 -240 0
219 -240 0
220 -240 0
221 -240 0
222 -240 0
223 -240 0
224 -240 0
225 -240 0
226 -240 0
227 -240 0
228 -240 0
229 -240 0
230 -240 0
231 -240 0
232 -240 0
233 -240 0
234 -240 0
235 -240 0
-148 -195 -196 -197 -198 -199 -200 -201 -202 -203 -204 -205 -206 -207 -208 -209 -210 -211 -212 -213 -214 -215 -216 -217 -218 -219 -220 -221 -222 -223 -224 -225 -226 -227 -228 -229 -230 -231 -232 -233 -234 -235 240 0
149 -241 0
196 -241 0
197 -241 0
198 -241 0
199 -241 0
200 -241 0
201 -241 0
202 -241 0
203 -241 0
204 -241 0
205 -241 0
206 -241 0
207 -241 0
208 -241 0
209 -241 0
210 -241 0
211 -241 0
212 -241 0
213 -241 0
214 -241 0
215 -241 0
216 -241 0
217 -241 0
218 -241 0
219 -241 0
220 -241 0
221 -241 0
222 -241 0
223 -241 0
224 -241 0
225 -241 0
226 -241 0
227 -241 0
228 -241 0
229 -241 0
230 -241 0
231 -241 0
232 -241 0
233 -241 0
234 -241 0
235 -241 0
-149 -196 -197 -198 -199 -200 -201 -202 -203 -204 -205 -206 -207 -208 -209 -210 -211 -212 -213 -214 -215 -216 -217 -218 -219 -220 -221 -222 -223 -224 -225 -226 -227 -228 -229 -230 -231 -232 -233 -234 -235 241 0
150 -242 0
197 -242 0
198 -242 0
199 -242 0
200 -242 0
201 -242 0
202 -242 0
203 -242 0
204 -242 0
205 -242 0
206 -242 0
207 -242 0
208 -242 0
209 -242 0
210 -242 0
211 -242 0
212 -242 0
213 -242 0
214 -242 0
215 -242 0
216 -242 0
217 -242 0
218 -242 0
219 -242 0
220 -242 0
221 -242 0
222 -242 0
223 -242 0
224 -242 0
225 -242 0
226 -242 0
227 -242 0
228 -242 0
229 -242 0
230 -242 0
231 -242 0
232 -242 0
233 -242 0
234 -242 0
235 -242 0
-150 -197 -198 -199 -200 -201 -202 -203 -204 -205 -206 -207 -208 -209 -210 -211 -212 -213 -214 -215 -216 -217 -218 -219 -220 -221 -222 -223 -224 -225 -226 -227 -228 -229 -230 -231 -232 -233 -234 -235 242 0
151 -243 0
198 -243 0
199 -243 0
200 -243 0
201 -243 0
202 -243 0
203 -243 0
204 -243 0
205 -243 0
206 -243 0
207 -243 0
208 -243 0
209 -243 0
210 -243 0
211 -243 0
212 -243 0
213 -243 0
214 -243 0
215 -243 0
216 -243 0
217 -243 0
218 -243 0
219 -243 0
220 -243 0
221 -243 0
222 -243 0
223 -243 0
224 -243 0
225 -243 0
226 -243 0
227 -243 0
228 -243 0
229 -243 0
230 -243 0
231 -243 0
232 -243 0
233 -243 0
234 -243 0
235 -243 0
-151 -198 -199 -200 -201 -202 -203 -204 -205 -206 -207 -208 -209 -210 -211 -212 -213 -214 -215 -216 -217 -218 -219 -220 -221 -222 -223 -224 -225 -226 -227 -228 -229 -230 -231 -232 -233 -234 -235 243 0
152 -244 0
199 -244 0
200 -244 0
201 -244 0
202 -244 0
203 -244 0
204 -244 0
205 -244 0
206 -244 0
207 -244 0
208 -244 0
209 -244 0
210 -244 0
211 -244 0
212 -244 0
213 -244 0
214 -244 0
215 -244 0
216 -244 0
217 -244 0
218 -244 0
219 -244 0
220 -244 0
221 -244 0
222 -244 0
223 -244 0
224 -244 0
225 -244 0
226 -244 0
227 -244 0
228 -244 0
229 -244 0
230 -244 0
231 -244 0
232 -244 0
233 -244 0
234 -244 0
235 -244 0
-152 -199 -200 -201 -202 -203 -204 -205 -206 -207 -208 -209 -210 -211 -212 -213 -214 -215 -216 -217 -218 -219 -220 -221 -222 -223 -224 -225 -226 -227 -228 -229 -230 -231 -232 -233 -234 -235 244 0
153 -245 0
200 -245 0
201 -245 0
202 -245 0
203 -245 0
204 -245 0
205 -245 0
206 -245 0
207 -245 0
208 -245 0
209 -245 0
210 -245 0
211 -245 0
212 -245 0
213 -245 0
214 -245 0
215 -245 0
216 -245 0
217 -245 0
218 -245 0
219 -245 0
220 -245 0
221 -245 0
222 -245 0
223 -245 0
224 -245 0
225 -245 0
226 -245 0
227 -245 0
228 -245 0
229 -245 0
230 -245 0
231 -245 0
232 -245 0
233 -245 0
234 -245 0
235 -245 0
-153 -200 -201 -202 -203 -204 -205 -206 -207 -208 -209 -210 -211 -212 -213 -214 -215 -216 -217 -218 -219 -220 -221 -222 -223 -224 -225 -226 -227 -228 -229 -230 -231 -232 -233 -234 -235 245 0
154 -246 0
201 -246 0
202 -246 0
203 -246 0
204 -246 0
205 -246 0
206 -246 0
207 -246 0
208 -246 0
209 -246 0
210 -246 0
211 -246 0
212 -246 0
213 -246 0
214 -246 0
215 -246 0
216 -246 0
217 -246 0
218 -246 0
219 -246 0
220 -246 0
221 -246 0
222 -246 0
223 -246 0
224 -246 0
225 -246 0
226 -246 0
227 -246 0
228 -246 0
229 -246 0
230 -246 0
231 -246 0
232 -246 0
233 -246 0
234 -246 0
235 -246 0
-154 -201 -202 -203 -204 -205 -206 -207 -208 -209 -210 -211 -212 -213 -214 -215 -216 -217 -218 -219 -220 -221 -222 -223 -224 -225 -226 -227 -228 -229 -230 -231 -232 -233 -234 -235 246 0
155 -247 0
202 -247 0
203 -247 0
204 -247 0
205 -247 0
206 -247 0
207 -247 0
208 -247 0
209 -247 0
210 -247 0
211 -247 0
212 -247 0
213 -247 0
214 -247 0
215 -247 0
216 -247 0
217 -247 0
218 -247 0
219 -247 0
220 -247 0
221 -247 0
222 -247 0
223 -247 0
224 -247 0
225 -247 0
226 -247 0
227 -247 0
228 -247 0
229 -247 0
230 -247 0
231 -247 0
232 -247 0
233 -247 0
234 -247 0
235 -247 0
-155 -202 -203 -204 -205 -206 -207 -208 -209 -210 -211 -212 -213 -214 -215 -216 -217 -218 -219 -220 -221 -222 -223 -224 -225 -226 -227 -228 -229 -230 -231 -232 -233 -234 -235 247 0
156 -248 0
203 -248 0
204 -248 0
205 -248 0
206 -248 0
207 -248 0
208 -248 0
209 -248 0
210 -248 0
211 -248 0
212 -248 0
213 -248 0
214 -248 0
215 -248 0
216 -248 0
217 -248 0
218 -248 0
219 -248 0
220 -248 0
221 -248 0
222 -248 0
223 -248 0
224 -248 0
225 -248 0
226 -248 0
227 -248 0
228 -248 0
229 -248 0
230 -248 0
231 -248 0
232 -248 0
233 -248 0
234 -248 0
235 -248 0
-156 -203 -204 -205 -206 -207 -208 -209 -210 -211 -212 -213 -214 -215 -216 -217 -218 -219 -220 -221 -222 -223 -224 -225 -226 -227 -228 -229 -230 -231 -232 -233 -234 -235 248 0
157 -249 0
204 -249 0
205 -249 0
206 -249 0
207 -249 0
208 -249 0
209 -249 0
210 -249 0
211 -249 0
212 -249 0
213 -249 0
214 -249 0
215 -249 0
216 -249 0
217 -249 0
218 -249 0
219 -249 0
220 -249 0
221 -249 0
222 -249 0
223 -249 0
224 -249 0
225 -249 0
226 -249 0
227 -249 0
228 -249 0
229 -249 0
230 -249 0
231 -249 0
232 -249 0
233 -249 0
234 -249 0
235 -249 0
-157 -204 -205 -206 -207 -208 -209 -210 -211 -212 -213 -214 -215 -216 -217 -218 -219 -220 -221 -222 -223 -224 -225 -226 -227 -228 -229 -230 -231 -232 -233 -234 -235 249 0
158 -250 0
205 -250 0
206 -250 0
207 -250 0
208 -250 0
209 -250 0
210 -250 0
211 -250 0
212 -250 0
213 -250 0
214 -250 0
215 -250 0
216 -250 0
217 -250 0
218 -250 0
219 -250 0
220 -250 0
221 -250 0
222 -250 0
223 -250 0
224 -250 0
225 -250 0
226 -250 0
227 -250 0
228 -250 0
229 -250 0
230 -250 0
231 -250 0
232 -250 0
233 -250 0
234 -250 0
235 -250 0
-158 -205 -206 -207 -208 -209 -210 -211 -212 -213 -214 -215 -216 -217 -218 -219 -220 -221 -222 -223 -224 -225 -226 -227 -228 -229 -230 -231 -232 -233 -234 -235 250 0
159 -251 0
206 -251 0
207 -251 0
208 -251 0
209 -251 0
210 -251 0
211 -251 0
212 -251 0
213 -251 0
214 -251 0
215 -251 0
216 -251 0
217 -251 0
218 -251 0
219 -251 0
220 -251 0
221 -251 0
222 -251 0
223 -251 0
224 -251 0
225 -251 0
226 -251 0
227 -251 0
228 -251 0
229 -251 0
230 -251 0
231 -251 0
232 -251 0
233 -251 0
234 -251 0
235 -251 0
-159 -206 -207 -208 -209 -210 -211 -212 -213 -214 -215 -216 -217 -218 -219 -220 -221 -222 -223 -224 -225 -226 -227 -228 -229 -230 -231 -232 -233 -234 -235 251 0
160 -252 0
207 -252 0
208 -252 0
209 -252 0
210 -252 0
211 -252 0
212 -252 0
213 -252 0
214 -252 0
215 -252 0
216 -252 0
217 -252 0
218 -252 0
219 -252 0
220 -252 0
221 -252 0
222 -252 0
223 -252 0
224 -252 0
225 -252 0
226 -252 0
227 -252 0
228 -252 0
229 -252 0
230 -252 0
231 -252 0
232 -252 0
233 -252 0
234 -252 0
235 -252 0
-160 -207 -208 -209 -210 -211 -212 -213 -214 -215 -216 -217 -218 -219 -220 -221 -222 -223 -224 -225 -226 -227 -228 -229 -230 -231 -232 -233 -234 -235 252 0
161 -253 0
208 -253 0
209 -253 0
210 -253 0
211 -253 0
212 -253 0
213 -253 0
214 -253 0
215 -253 0
216 -253 0
217 -253 0
218 -253 0
219 -253 0
220 -253 0
221 -253 0
222 -253 0
223 -253 0
224 -253 0
225 -253 0
226 -253 0
227 -253 0
228 -253 0
229 -253 0
230 -253 0
231 -253 0
232 -253 0
233 -253 0
234 -253 0
235 -253 0
-161 -208 -209 -210 -211 -212 -213 -214 -215 -216 -217 -218 -219 -220 -221 -222 -223 -224 -225 -226 -227 -228 -229 -230 -231 -232 -233 -234 -235 253 0
162 -254 0
209 -254 0
210 -254 0
211 -254 0
212 -254 0
213 -254 0
214 -254 0
215 -254 0
216 -254 0
217 -254 0
218 -254 0
219 -254 0
220 -254 0
221 -254 0
222 -254 0
223 -254 0
224 -254 0
225 -254 0
226 -254 0
227 -254 0
228 -254 0
229 -254 0
230 -254 0
231 -254 0
232 -254 0
233 -254 0
234 -254 0
235 -254 0
-162 -209 -210 -211 -212 -213 -214 -215 -216 -217 -218 -219 -220 -221 -222 -223 -224 -225 -226 -227 -228 -229 -230 -231 -232 -233 -234 -235 254 0
163 -255 0
210 -255 0
211 -255 0
212 -255 0
213 -255 0
214 -255 0
215 -255 0
216 -255 0
217 -255 0
218 -255 0
219 -255 0
220 -255 0
221 -255 0
222 -255 0
223 -255 0
224 -255 0
225 -255 0
226 -255 0
227 -255 0
228 -255 0
229 -255 0
230 -255 0
231 -255 0
232 -255 0
233 -255 0
234 -255 0
235 -255 0
-163 -210 -211 -212 -213 -214 -215 -216 -217 -218 -219 -220 -221 -222 -223 -224 -225 -226 -227 -228 -229 -230 -231 -232 -233 -234 -235 255 0
164 -256 0
211 -256 0
212 -256 0
213 -256 0
214 -256 0
215 -256 0
216 -256 0
217 -256 0
218 -256 0
219 -256 0
220 -256 0
221 -256 0
222 -256 0
223 -256 0
224 -256 0
225 -256 0
226 -256 0
227 -256 0
228 -256 0
229 -256 0
230 -256 0
231 -256 0
232 -256 0
233 -256 0
234 -256 0
235 -256 0
-164 -211 -212 -213 -214 -215 -216 -217 -218 -219 -220 -221 -222 -223 -224 -225 -226 -227 -228 -229 -230 -231 -232 -233 -234 -235 256 0
165 -257 0
212 -257 0
213 -257 0
214 -257 0
215 -257 0
216 -257 0
217 -257 0
218 -257 0
219 -257 0
220 -257 0
221 -257 0
222 -257 0
223 -257 0
224 -257 0
225 -257 0
226 -257 0
227 -257 0
228 -257 0
229 -257 0
230 -257 0
231 -257 0
232 -257 0
233 -257 0
234 -257 0
235 -257 0
-165 -212 -213 -214 -215 -216 -217 -218 -219 -220 -221 -222 -223 -224 -225 -226 -227 -228 -229 -230 -231 -232 -233 -234 -235 257 0
166 -258 0
213 -258 0
214 -258 0
215 -258 0
216 -258 0
217 -258 0
218 -258 0
219 -258 0
220 -258 0
221 -258 0
222 -258 0
223 -258 0
224 -258 0
225 -258 0
226 -258 0
227 -258 0
228 -258 0
229 -258 0
230 -258 0
231 -258 0
232 -258 0
233 -258 0
234 -258 0
235 -258 0
-166 -213 -214 -215 -216 -217 -218 -219 -220 -221 -222 -223 -224 -225 -226 -227 -228 -229 -230 -231 -232 -233 -234 -235 258 0
167 -259 0
214 -259 0
215 -259 0
216 -259 0
217 -259 0
218 -259 0
219 -259 0
220 -259 0
221 -259 0
222 -259 0
223 -259 0
224 -259 0
225 -259 0
226 -259 0
227 -259 0
228 -259 0
229 -259 0
230 -259 0
231 -259 0
232 -259 0
233 -259 0
234 -259 0
235 -259 0
-167 -214 -215 -216 -217 -218 -219 -220 -221 -222 -223 -224 -225 -226 -227 -228 -229 -230 -231 -232 -233 -234 -235 259 0
168 -260 0
215 -260 0
216 -260 0
217 -260 0
218 -260 0
219 -260 0
220 -260 0
221 -260 0
222 -260 0
223 -260 0
224 -260 0
225 -260 0
226 -260 0
227 -260 0
228 -260 0
229 -260 0
230 -260 0
231 -260 0
232 -260 0
233 -260 0
234 -260 0
235 -260 0
-168 -215 -216 -217 -218 -219 -220 -221 -222 -223 -224 -225 -226 -227 -228 -229 -230 -231 -232 -233 -234 -235 260 0
169 -261 0
216 -261 0
217 -261 0
218 -261 0
219 -261 0
220 -261 0
221 -261 0
222 -261 0
223 -261 0
224 -261 0
225 -261 0
226 -261 0
227 -261 0
228 -261 0
229 -261 0
230 -261 0
231 -261 0
232 -261 0
233 -261 0
234 -261 0
235 -261 0
-169 -216 -217 -218 -219 -220 -221 -222 -223 -224 -225 -226 -227 -228 -229 -230 -231 -232 -233 -234 -235 261 0
170 -262 0
217 -262 0
218 -262 0
219 -262 0
220 -262 0
221 -262 0
222 -262 0
223 -262 0
224 -262 0
225 -262 0
226 -262 0
227 -262 0
228 -262 0
229 -262 0
230 -262 0
231 -262 0
232 -262 0
233 -262 0
234 -262 0
235 -262 0
-170 -217 -218 -219 -220 -221 -222 -223 -224 -225 -226 -227 -228 -229 -230 -231 -232 -233 -234 -235 262 0
171 -263 0
218 -263 0
219 -263 0
220 -263 0
221 -263 0
222 -263 0
223 -263 0
224 -263 0
225 -263 0
226 -263 0
227 -263 0
228 -263 0
229 -263 0
230 -263 0
231 -263 0
232 -263 0
233 -263 0
234 -263 0
235 -263 0
-171 -218 -219 -220 -221 -222 -223 -224 -225 -226 -227 -228 -229 -230 -231 -232 -233 -234 -235 263 0
172 -264 0
219 -264 0
220 -264 0
221 -264 0
222 -264 0
223 -264 0
224 -264 0
225 -264 0
226 -264 0
227 -264 0
228 -264 0
229 -264 0
230 -264 0
231 -264 0
232 -264 0
233 -264 0
234 -264 0
235 -264 0
-172 -219 -220 -221 -222 -223 -224 -225 -226 -227 -228 -229 -230 -231 -232 -233 -234 -235 264 0
173 -265 0
220 -265 0
221 -265 0
222 -265 0
223 -265 0
224 -265 0
225 -265 0
226 -265 0
227 -265 0
228 -265 0
229 -265 0
230 -265 0
231 -265 0
232 -265 0
233 -265 0
234 -265 0
235 -265 0
-173 -220 -221 -222 -223 -224 -225 -226 -227 -228 -229 -230 -231 -232 -233 -234 -235 265 0
174 -266 0
221 -266 0
222 -266 0
223 -266 0
224 -266 0
225 -266 0
226 -266 0
227 -266 0
228 -266 0
229 -266 0
230 -266 0
231 -266 0
232 -266 0
233 -266 0
234 -266 0
235 -266 0
-174 -221 -222 -223 -224 -225 -226 -227 -228 -229 -230 -231 -232 -233 -234 -235 266 0
175 -267 0
222 -267 0
223 -267 0
224 -267 0
225 -267 0
226 -267 0
227 -267 0
228 -267 0
229 -267 0
230 -267 0
231 -267 0
232 -267 0
233 -267 0
234 -267 0
235 -267 0
-175 -222 -223 -224 -225 -226 -227 -228 -229 -230 -231 -232 -233 -234 -235 267 0
176 -268 0
223 -268 0
224 -268 0
225 -268 0
226 -268 0
227 -268 0
228 -268 0
229 -268 0
230 -268 0
231 -268 0
232 -268 0
233 -268 0
234 -268 0
235 -268 0
-176 -223 -224 -225 -226 -227 -228 -229 -230 -231 -232 -233 -234 -235 268 0
177 -269 0
224 -269 0
225 -269 0
226 -269 0
227 -269 0
228 -269 0
229 -269 0
230 -269 0
231 -269 0
232 -269 0
233 -269 0
234 -269 0
235 -269 0
-177 -224 -225 -226 -227 -228 -229 -230 -231 -232 -233 -234 -235 269 0
178 -270 0
225 -270 0
226 -270 0
227 -270 0
228 -270 0
229 -270 0
230 -270 0
231 -270 0
232 -270 0
233 -270 0
234 -270 0
235 -270 0
-178 -225 -226 -227 -228 -229 -230 -231 -232 -233 -234 -235 270 0
179 -271 0
226 -271 0
227 -271 0
228 -271 0
229 -271 0
230 -271 0
231 -271 0
232 -271 0
233 -271 0
234 -271 0
235 -271 0
-179 -226 -227 -228 -229 -230 -231 -232 -233 -234 -235 271 0
180 -272 0
227 -272 0
228 -272 0
229 -272 0
230 -272 0
231 -272 0
232 -272 0
233 -272 0
234 -272 0
235 -272 0
-180 -227 -228 -229 -230 -231 -232 -233 -234 -235 272 0
181 -273 0
228 -273 0
229 -273 0
230 -273 0
231 -273 0
232 -273 0
233 -273 0
234 -273 0
235 -273 0
-181 -228 -229 -230 -231 -232 -233 -234 -235 273 0
182 -274 0
229 -274 0
230 -274 0
231 -274 0
232 -274 0
233 -274 0
234 -274 0
235 -274 0
-182 -229 -230 -231 -232 -233 -234 -235 274 0
183 -275 0
230 -275 0
231 -275 0
232 -275 0
233 -275 0
234 -275 0
235 -275 0
-183 -230 -231 -232 -233 -234 -235 275 0
184 -276 0
231 -276 0
232 -276 0
233 -276 0
234 -276 0
235 -276 0
-184 -231 -232 -233 -234 -235 276 0
185 -277 0
232 -277 0
233 -277 0
234 -277 0
235 -277 0
-185 -232 -233 -234 -235 277 0
186 -278 0
233 -278 0
234 -278 0
235 -278 0
-186 -233 -234 -235 278 0
187 -279 0
234 -279 0
235 -279 0
-187 -234 -235 279 0
188 -280 0
235 -280 0
-188 -235 280 0
189 -281 0
-189 281 0
-236 93 0
-237 93 0
-238 93 0
-239 93 0
-240 93 0
-241 93 0
-242 93 0
-243 93 0
-244 93 0
-245 93 0
-246 93 0
-247 93 0
-248 93 0
-249 93 0
-250 93 0
-251 93 0
-252 93 0
-253 93 0
-254 93 0
-255 93 0
-256 93 0
-257 93 0
-258 93 0
-259 93 0
-260 93 0
-261 93 0
-262 93 0
-263 93 0
-264 93 0
-265 93 0
-266 93 0
-267 93 0
-268 93 0
-269 93 0
-270 93 0
-271 93 0
-272 93 0
-273 93 0
-274 93 0
-275 93 0
-276 93 0
-277 93 0
-278 93 0
-279 93 0
-280 93 0
-281 93 0
236 237 238 239 240 241 242 243 244 245 246 247 248 249 250 251 252 253 254 255 256 257 258 259 260 261 262 263 264 265 266 267 268 269 270 271 272 273 274 275 276 277 278 279 280 281 -93 0
190 -94 0
191 -94 0
192 -94 0
193 -94 0
194 -94 0
195 -94 0
196 -94 0
197 -94 0
198 -94 0
199 -94 0
200 -94 0
201 -94 0
202 -94 0
203 -94 0
204 -94 0
205 -94 0
206 -94 0
207 -94 0
208 -94 0
209 -94 0
210 -94 0
211 -94 0
212 -94 0
213 -94 0
214 -94 0
215 -94 0
216 -94 0
217 -94 0
218 -94 0
219 -94 0
220 -94 0
221 -94 0
222 -94 0
223 -94 0
224 -94 0
225 -94 0
226 -94 0
227 -94 0
228 -94 0
229 -94 0
230 -94 0
231 -94 0
232 -94 0
233 -94 0
234 -94 0
235 -94 0
-190 -191 -192 -193 -194 -195 -196 -197 -198 -199 -200 -201 -202 -203 -204 -205 -206 -207 -208 -209 -210 -211 -212 -213 -214 -215 -216 -217 -218 -219 -220 -221 -222 -223 -224 -225 -226 -227 -228 -229 -230 -231 -232 -233 -234 -235 94 0
-93 -95 0
-94 -95 0
93 94 95 0
